Geometry = GenFormat {
7 C
C H O 
1 1         0.726427460000000         0.117003230000000        -0.030674460000000
2 2         1.255384850000000        -0.905245960000000        -0.028677560000000
3 1        -0.781564920000000         0.061259620000000        -0.030572570000000
4 2        -1.176959720000000         0.574024430000000        -0.915908120000000
5 2        -1.150633070000000        -0.969432210000000        -0.028767820000000
6 2        -1.176935340000000         0.577099580000000         0.852987710000000
7 3         1.351027120000000         1.137528390000000        -0.032653850000000
}
Hamiltonian = DFTB {
SCC = Yes
SCCTolerance = 1e-10
SlaterKosterFiles = Type2FileNames {
Prefix = "./"
Separator = "-"
Suffix = ".skf"
}
MaxAngularMomentum =  {
C = "p"
H = "s"
O = "p"
}
}
Options {
WriteHS = Yes
}
