Geometry = GenFormat {
<<< "geo.gen"
}
Hamiltonian = DFTB {
SCC = Yes
SCCTolerance = 1e-10
SlaterKosterFiles = Type2FileNames {
Prefix = "./"
Separator = "-"
Suffix = ".skf"
}
MaxAngularMomentum =  {
C = "p"
H = "s"
O = "p"
}
}
Options {
WriteHS = Yes
}
