Geometry = GenFormat {
<<< "/home/hiroki/config-aimc/dftbplus_workdir/geo.gen"
}
Driver = SteepestDescent {
MaxSteps = 1
}
Hamiltonian = DFTB {
SCC = Yes
SCCTolerance = 1e-10
SlaterKosterFiles = Type2FileNames {
Prefix = /home/hiroki/config-aimc/dftbplus_workdir/
Separator = "-"
Suffix = ".skf"
}
ForceEvaluation = "traditional"
MaxAngularMomentum =  {
C = "p"
H = "s"
O = "p"
}
}
